330 3253
2 3 4 5 6 7 8 9 10 17 18 19 20 21 22 23 24 25 26 27 28 29 30 31 32 33 34 35 36 37 38 39 40 41 42 43 70 71 74 75 76 77 
1 3 4 5 6 7 8 9 10 17 18 19 20 21 22 23 24 25 26 27 28 29 30 31 32 33 34 35 36 37 38 39 40 41 42 43 66 67 68 69 70 71 74 75 76 77 84 
1 2 4 5 6 7 8 9 10 17 18 19 20 21 22 23 24 25 26 27 28 29 30 31 32 33 34 35 36 37 38 39 40 41 42 43 44 71 74 75 76 77 78 79 80 81 82 83 84 
1 2 3 5 6 7 8 9 10 17 18 19 20 21 22 23 24 25 26 27 28 29 30 31 32 33 34 35 36 37 38 39 40 41 42 43 44 45 74 75 76 77 79 80 81 82 83 84 
1 2 3 4 6 7 8 9 10 17 18 19 20 21 22 23 24 25 26 27 28 29 30 31 32 33 34 35 36 37 38 39 40 41 42 43 44 45 74 75 76 77 80 81 82 83 84 
1 2 3 4 5 7 8 9 10 17 18 19 20 21 22 23 24 25 26 27 28 29 30 31 32 33 34 35 36 37 38 39 40 41 42 43 44 45 74 75 76 77 81 82 83 84 
1 2 3 4 5 6 8 9 10 17 18 19 20 21 22 23 24 25 26 27 28 29 30 31 32 33 34 35 36 37 38 39 40 41 42 43 44 45 46 77 81 82 83 84 
1 2 3 4 5 6 7 9 10 11 17 18 19 20 21 22 23 24 25 26 27 28 29 30 31 32 33 34 35 36 37 38 39 40 41 42 43 44 45 46 83 84 
1 2 3 4 5 6 7 8 10 11 17 18 19 20 21 22 23 24 25 26 27 28 29 30 31 32 33 34 35 36 37 38 39 40 41 42 43 45 46 
1 2 3 4 5 6 7 8 9 11 16 17 18 19 20 21 22 23 24 25 26 27 28 29 30 31 32 33 34 35 36 37 38 39 40 41 42 43 
8 9 10 12 13 14 15 16 17 18 48 49 
11 13 14 15 16 50 
11 12 14 15 16 
11 12 13 15 16 
11 12 13 14 16 
10 11 12 13 14 15 17 18 19 
1 2 3 4 5 6 7 8 9 10 11 16 18 19 20 21 22 23 24 25 26 27 28 29 30 31 32 33 34 36 37 38 39 40 41 42 43 65 66 
1 2 3 4 5 6 7 8 9 10 11 16 17 19 20 21 22 23 24 25 26 27 28 29 30 31 32 33 34 35 36 37 38 39 40 41 42 43 65 66 67 68 
1 2 3 4 5 6 7 8 9 10 16 17 18 20 21 22 23 24 25 26 27 28 29 30 31 32 33 34 35 36 37 38 39 40 41 42 43 63 64 65 66 67 68 69 
1 2 3 4 5 6 7 8 9 10 17 18 19 21 22 23 24 25 26 27 28 29 30 31 32 33 34 35 36 37 38 39 40 41 42 43 63 64 65 66 67 68 69 70 
1 2 3 4 5 6 7 8 9 10 17 18 19 20 22 23 24 25 26 27 28 29 30 31 32 33 34 35 36 37 38 39 40 41 42 43 63 64 65 66 67 68 69 70 71 
1 2 3 4 5 6 7 8 9 10 17 18 19 20 21 23 24 25 26 27 28 29 30 31 32 33 34 35 36 37 38 39 40 41 42 43 63 64 65 66 67 68 69 70 71 
1 2 3 4 5 6 7 8 9 10 17 18 19 20 21 22 24 25 26 27 28 29 30 31 32 33 34 35 36 37 38 39 40 41 42 43 64 65 66 67 68 69 70 71 
1 2 3 4 5 6 7 8 9 10 17 18 19 20 21 22 23 25 26 27 28 29 30 31 32 33 34 35 36 37 38 39 40 41 42 43 64 65 66 67 68 69 70 71 
1 2 3 4 5 6 7 8 9 10 17 18 19 20 21 22 23 24 26 27 28 29 30 31 32 33 34 35 36 37 38 39 40 41 42 43 65 66 67 68 69 70 71 74 75 84 
1 2 3 4 5 6 7 8 9 10 17 18 19 20 21 22 23 24 25 27 28 29 30 31 32 33 34 35 36 37 38 39 40 41 42 43 65 66 67 68 69 70 71 74 75 76 84 
1 2 3 4 5 6 7 8 9 10 17 18 19 20 21 22 23 24 25 26 28 29 30 31 32 33 34 35 36 37 38 39 40 41 42 43 65 66 67 68 69 70 71 72 74 75 76 77 84 
1 2 3 4 5 6 7 8 9 10 17 18 19 20 21 22 23 24 25 26 27 29 30 31 32 33 34 35 36 37 38 39 40 41 42 43 65 66 67 68 69 70 71 72 73 74 75 76 77 84 
1 2 3 4 5 6 7 8 9 10 17 18 19 20 21 22 23 24 25 26 27 28 30 31 32 33 34 35 36 37 38 39 40 41 42 43 65 66 67 68 69 70 71 72 73 74 75 76 77 84 
1 2 3 4 5 6 7 8 9 10 17 18 19 20 21 22 23 24 25 26 27 28 29 31 32 33 34 35 36 37 38 39 40 41 42 43 65 66 67 68 69 70 71 72 73 74 75 76 77 84 
1 2 3 4 5 6 7 8 9 10 17 18 19 20 21 22 23 24 25 26 27 28 29 30 32 33 34 35 36 37 38 39 40 41 42 43 65 66 67 68 69 70 71 72 73 74 75 76 77 84 
1 2 3 4 5 6 7 8 9 10 17 18 19 20 21 22 23 24 25 26 27 28 29 30 31 33 34 35 36 37 38 39 40 41 42 43 66 67 68 69 70 71 72 73 74 75 76 77 84 
1 2 3 4 5 6 7 8 9 10 17 18 19 20 21 22 23 24 25 26 27 28 29 30 31 32 34 35 36 37 38 39 40 41 42 43 67 68 69 70 71 72 73 74 75 76 77 78 79 84 
1 2 3 4 5 6 7 8 9 10 17 18 19 20 21 22 23 24 25 26 27 28 29 30 31 32 33 35 36 37 38 39 40 41 42 43 68 69 70 71 72 73 74 75 76 77 78 79 84 
1 2 3 4 5 6 7 8 9 10 18 19 20 21 22 23 24 25 26 27 28 29 30 31 32 33 34 36 37 38 39 40 41 42 43 68 69 70 71 72 73 74 75 76 77 78 79 80 84 
1 2 3 4 5 6 7 8 9 10 17 18 19 20 21 22 23 24 25 26 27 28 29 30 31 32 33 34 35 37 38 39 40 41 42 43 69 70 71 73 74 75 76 77 78 79 80 84 
1 2 3 4 5 6 7 8 9 10 17 18 19 20 21 22 23 24 25 26 27 28 29 30 31 32 33 34 35 36 38 39 40 41 42 43 69 70 71 74 75 76 77 78 79 80 81 82 84 
1 2 3 4 5 6 7 8 9 10 17 18 19 20 21 22 23 24 25 26 27 28 29 30 31 32 33 34 35 36 37 39 40 41 42 43 69 70 71 74 75 76 77 78 79 80 81 82 84 
1 2 3 4 5 6 7 8 9 10 17 18 19 20 21 22 23 24 25 26 27 28 29 30 31 32 33 34 35 36 37 38 40 41 42 43 70 71 74 75 76 77 78 79 80 81 82 83 84 
1 2 3 4 5 6 7 8 9 10 17 18 19 20 21 22 23 24 25 26 27 28 29 30 31 32 33 34 35 36 37 38 39 41 42 43 70 71 74 75 76 77 78 79 80 81 82 83 84 
1 2 3 4 5 6 7 8 9 10 17 18 19 20 21 22 23 24 25 26 27 28 29 30 31 32 33 34 35 36 37 38 39 40 42 43 44 71 74 75 76 77 78 79 80 81 82 83 84 
1 2 3 4 5 6 7 8 9 10 17 18 19 20 21 22 23 24 25 26 27 28 29 30 31 32 33 34 35 36 37 38 39 40 41 43 44 71 74 75 76 77 78 79 80 81 82 83 84 
1 2 3 4 5 6 7 8 9 10 17 18 19 20 21 22 23 24 25 26 27 28 29 30 31 32 33 34 35 36 37 38 39 40 41 42 65 66 67 68 69 70 71 74 75 76 77 84 125 
3 4 5 6 7 8 41 42 45 46 47 48 79 80 81 82 83 85 86 123 124 
4 5 6 7 8 9 44 46 47 48 49 80 81 82 83 85 86 123 124 
7 8 9 44 45 47 48 49 81 82 83 85 86 87 123 124 
44 45 46 48 49 82 83 85 86 87 124 
11 44 45 46 47 49 50 83 85 86 87 88 
11 45 46 47 48 50 
12 48 49 89 
52 53 91 92 93 94 
51 53 92 
51 52 54 55 94 95 96 
53 55 56 93 94 95 96 97 
53 54 56 94 95 96 97 98 
54 55 57 95 96 97 98 
56 58 97 98 99 138 139 
57 59 99 100 
58 60 61 99 100 101 102 
59 61 62 63 100 101 102 103 104 142 
59 60 62 63 64 65 66 102 103 104 105 106 
60 61 63 64 65 66 67 102 103 104 105 106 107 
19 20 21 22 60 61 62 64 65 66 67 68 102 103 104 105 106 107 108 146 
19 20 21 22 23 24 61 62 63 65 66 67 68 102 103 104 105 106 107 108 109 146 147 
17 18 19 20 21 22 23 24 25 26 27 28 29 30 31 43 61 62 63 64 66 67 68 69 70 71 105 106 107 108 109 110 111 
2 17 18 19 20 21 22 23 24 25 26 27 28 29 30 31 32 43 61 62 63 64 65 67 68 69 70 71 84 106 107 108 109 110 111 
2 18 19 20 21 22 23 24 25 26 27 28 29 30 31 32 33 43 62 63 64 65 66 68 69 70 71 72 84 107 108 109 110 111 
2 18 19 20 21 22 23 24 25 26 27 28 29 30 31 32 33 34 35 43 63 64 65 66 67 69 70 71 72 73 74 84 107 108 109 110 111 
2 19 20 21 22 23 24 25 26 27 28 29 30 31 32 33 34 35 36 37 38 43 65 66 67 68 70 71 72 73 74 75 76 84 107 108 109 110 111 112 
1 2 20 21 22 23 24 25 26 27 28 29 30 31 32 33 34 35 36 37 38 39 40 43 65 66 67 68 69 71 72 73 74 75 76 77 84 107 108 109 110 111 112 113 115 
1 2 3 21 22 23 24 25 26 27 28 29 30 31 32 33 34 35 36 37 38 39 40 41 42 43 65 66 67 68 69 70 72 73 74 75 76 77 84 108 109 110 111 112 113 114 115 116 
27 28 29 30 31 32 33 34 35 67 68 69 70 71 73 74 75 76 77 109 110 111 112 113 114 115 116 117 
28 29 30 31 32 33 34 35 36 68 69 70 71 72 74 75 76 77 78 110 111 112 113 114 115 116 117 118 
1 2 3 4 5 6 25 26 27 28 29 30 31 32 33 34 35 36 37 38 39 40 41 42 43 68 69 70 71 72 73 75 76 77 78 79 80 84 111 113 114 115 116 117 118 
1 2 3 4 5 6 25 26 27 28 29 30 31 32 33 34 35 36 37 38 39 40 41 42 43 69 70 71 72 73 74 76 77 78 79 80 81 84 114 115 116 117 118 
1 2 3 4 5 6 26 27 28 29 30 31 32 33 34 35 36 37 38 39 40 41 42 43 69 70 71 72 73 74 75 77 78 79 80 81 82 84 114 115 116 117 118 119 
1 2 3 4 5 6 7 27 28 29 30 31 32 33 34 35 36 37 38 39 40 41 42 43 70 71 72 73 74 75 76 78 79 80 81 82 83 84 115 116 117 118 119 120 
3 33 34 35 36 37 38 39 40 41 42 73 74 75 76 77 79 80 81 82 83 115 116 117 118 119 120 121 
3 4 33 34 35 36 37 38 39 40 41 42 44 74 75 76 77 78 80 81 82 83 115 116 117 118 119 120 121 122 123 
3 4 5 35 36 37 38 39 40 41 42 44 45 74 75 76 77 78 79 81 82 83 116 117 118 119 120 121 122 123 124 
3 4 5 6 7 37 38 39 40 41 42 44 45 46 75 76 77 78 79 80 82 83 85 86 118 119 120 121 122 123 124 
3 4 5 6 7 37 38 39 40 41 42 44 45 46 47 76 77 78 79 80 81 83 85 86 120 121 122 123 124 
3 4 5 6 7 8 39 40 41 42 44 45 46 47 48 77 78 79 80 81 82 85 86 122 123 124 
2 3 4 5 6 7 8 25 26 27 28 29 30 31 32 33 34 35 36 37 38 39 40 41 42 43 66 67 68 69 70 71 74 75 76 77 125 166 
44 45 46 47 48 81 82 83 86 87 122 123 124 126 163 164 165 
44 45 46 47 48 81 82 83 85 87 88 122 123 124 126 127 165 
46 47 48 85 86 88 89 124 126 127 128 
48 86 87 89 127 128 
50 87 88 128 131 
91 92 130 131 132 133 
51 90 92 93 132 133 
51 52 90 91 93 94 133 
51 54 91 92 94 95 132 133 134 135 136 
51 53 54 55 92 93 95 96 97 133 134 135 136 137 
53 54 55 56 93 94 96 97 135 136 137 
53 54 55 56 94 95 97 98 136 137 138 
54 55 56 57 94 95 96 98 137 138 
55 56 57 96 97 138 139 140 
57 58 59 100 139 140 141 181 
58 59 60 99 101 141 142 
59 60 100 102 103 142 143 144 
59 60 61 62 63 64 101 103 104 105 106 142 143 144 145 146 
60 61 62 63 64 101 102 104 105 106 107 142 143 144 145 146 147 
60 61 62 63 64 102 103 105 106 107 143 144 145 146 147 148 
61 62 63 64 65 102 103 104 106 107 108 143 144 145 146 147 148 149 188 
61 62 63 64 65 66 102 103 104 105 107 108 109 144 145 146 147 148 149 150 188 189 
62 63 64 65 66 67 68 69 70 103 104 105 106 108 109 110 111 146 147 148 149 150 151 189 
63 64 65 66 67 68 69 70 71 105 106 107 109 110 111 112 146 147 148 149 150 151 152 190 
64 65 66 67 68 69 70 71 72 106 107 108 110 111 112 147 148 149 150 151 152 191 
65 66 67 68 69 70 71 72 73 107 108 109 111 112 113 148 149 150 151 152 153 191 192 
65 66 67 68 69 70 71 72 73 74 107 108 109 110 112 113 114 115 149 150 151 152 153 192 193 
69 70 71 72 73 108 109 110 111 113 114 115 150 151 152 153 154 155 192 193 194 
70 71 72 73 74 110 111 112 114 115 116 117 151 152 153 154 155 156 194 
71 72 73 74 75 76 111 112 113 115 116 117 118 152 153 154 155 156 157 158 
70 71 72 73 74 75 76 77 78 79 111 112 113 114 116 117 118 119 154 155 156 157 158 159 
71 72 73 74 75 76 77 78 79 80 113 114 115 117 118 119 120 155 156 157 158 159 
72 73 74 75 76 77 78 79 80 113 114 115 116 118 119 120 156 157 158 159 
73 74 75 76 77 78 79 80 81 114 115 116 117 119 120 156 157 158 159 160 
76 77 78 79 80 81 115 116 117 118 120 121 122 123 157 158 159 160 161 162 163 
77 78 79 80 81 82 116 117 118 119 121 122 123 124 158 159 160 161 162 163 
78 79 80 81 82 119 120 122 123 124 159 160 161 162 163 164 
79 80 81 82 83 85 86 119 120 121 123 124 161 162 163 164 165 
44 45 46 79 80 81 82 83 85 86 119 120 121 122 124 162 163 164 165 
44 45 46 47 80 81 82 83 85 86 87 120 121 122 123 126 163 164 165 
43 84 166 207 
85 86 87 124 127 128 164 165 167 168 205 206 
86 87 88 126 128 165 167 168 169 206 
87 88 89 126 127 129 168 169 
128 131 169 170 171 211 
90 131 170 171 
89 90 129 130 132 133 171 172 173 174 
90 91 93 131 133 134 171 172 173 174 
90 91 92 93 94 131 132 134 135 172 173 174 
93 94 132 133 135 136 137 173 174 175 176 177 
93 94 95 133 134 136 137 138 174 175 176 177 178 
93 94 95 96 134 135 137 138 176 177 178 
94 95 96 97 134 135 136 138 139 177 178 179 
57 96 97 98 135 136 137 139 177 178 179 
57 98 99 137 138 140 178 179 180 181 
98 99 139 141 181 182 
99 100 140 181 182 
60 100 101 102 103 143 144 145 183 184 185 224 
101 102 103 104 105 142 144 145 146 183 184 185 186 187 224 225 226 
101 102 103 104 105 106 142 143 145 146 147 184 185 186 187 225 226 227 
102 103 104 105 106 142 143 144 146 147 148 184 185 186 187 188 225 226 227 
63 64 102 103 104 105 106 107 108 143 144 145 147 148 149 184 185 186 187 188 189 190 228 229 
64 103 104 105 106 107 108 109 144 145 146 148 149 150 186 187 188 189 190 191 228 229 230 
104 105 106 107 108 109 110 145 146 147 149 150 151 187 188 189 190 191 229 230 
105 106 107 108 109 110 111 146 147 148 150 151 152 188 189 190 191 192 230 231 
106 107 108 109 110 111 112 147 148 149 151 152 188 189 190 191 192 193 231 232 
107 108 109 110 111 112 113 148 149 150 152 153 189 190 191 192 193 194 232 233 
108 109 110 111 112 113 114 149 150 151 153 154 155 190 191 192 193 194 233 234 
110 111 112 113 114 151 152 154 155 192 193 194 195 234 235 
112 113 114 115 152 153 155 156 157 193 194 195 196 197 235 236 
112 113 114 115 116 152 153 154 156 157 158 194 195 196 197 198 236 
113 114 115 116 117 118 154 155 157 158 159 196 197 198 199 
114 115 116 117 118 119 154 155 156 158 159 160 197 198 199 200 
114 115 116 117 118 119 120 155 156 157 159 160 161 197 198 199 200 201 
115 116 117 118 119 120 121 156 157 158 160 161 162 197 198 199 200 201 
118 119 120 121 157 158 159 161 162 163 198 199 200 201 202 203 241 242 
119 120 121 122 158 159 160 162 163 199 200 201 202 203 204 242 
119 120 121 122 123 159 160 161 163 164 200 201 202 203 204 
85 119 120 121 122 123 124 160 161 162 164 165 203 204 
85 121 122 123 124 126 162 163 165 167 203 204 205 206 246 
85 86 122 123 124 126 127 163 164 167 204 205 206 
84 125 207 248 
126 127 164 165 168 205 206 208 209 247 
126 127 128 167 169 206 208 209 210 251 
127 128 129 168 209 210 211 251 
129 130 171 211 
129 130 131 132 170 172 211 
131 132 133 171 173 174 212 
131 132 133 134 172 174 175 176 212 213 214 
131 132 133 134 135 172 173 175 176 177 214 
134 135 173 174 176 177 178 214 215 216 217 218 219 
134 135 136 173 174 175 177 178 179 216 217 218 219 
134 135 136 137 138 174 175 176 178 179 180 217 218 219 220 
135 136 137 138 139 175 176 177 179 180 217 218 219 220 
137 138 139 176 177 178 180 181 218 219 220 221 
139 177 178 179 181 219 220 221 222 
99 139 140 141 179 180 182 222 
140 141 181 183 
142 143 182 184 185 224 225 
142 143 144 145 146 183 185 186 187 224 225 226 227 
142 143 144 145 146 183 184 186 187 188 224 225 226 227 228 267 
143 144 145 146 147 184 185 187 188 224 225 226 227 228 229 267 
143 144 145 146 147 148 184 185 186 188 189 225 226 227 228 229 230 267 
105 106 145 146 147 148 149 150 185 186 187 189 190 191 227 228 229 230 231 
106 107 146 147 148 149 150 151 187 188 190 191 192 228 229 230 231 232 
108 146 147 148 149 150 151 152 188 189 191 192 193 228 229 230 231 232 233 
109 110 147 148 149 150 151 152 188 189 190 192 193 229 230 231 232 233 234 272 
110 111 112 149 150 151 152 153 189 190 191 193 194 230 231 232 233 234 235 273 274 
111 112 150 151 152 153 154 190 191 192 194 231 232 233 234 235 236 274 275 
112 113 151 152 153 154 155 192 193 195 196 233 234 235 236 276 
153 154 155 194 196 197 235 236 237 277 
154 155 156 194 195 197 198 235 236 237 238 277 278 
154 155 156 157 158 159 195 196 198 199 200 236 237 238 239 240 278 
155 156 157 158 159 160 196 197 199 200 201 237 238 239 240 241 242 280 
156 157 158 159 160 161 197 198 200 201 202 238 239 240 241 242 280 281 
157 158 159 160 161 162 197 198 199 201 202 203 239 240 241 242 243 281 282 283 
158 159 160 161 162 198 199 200 202 203 239 240 241 242 243 244 282 283 284 
160 161 162 199 200 201 203 204 240 241 242 243 244 245 283 284 285 
160 161 162 163 164 200 201 202 204 205 242 243 244 245 246 285 286 
161 162 163 164 165 202 203 205 206 243 244 245 246 247 286 287 
126 164 165 167 203 204 206 208 245 246 247 
126 127 164 165 167 168 204 205 208 209 246 247 
125 166 248 289 
167 168 205 206 209 246 247 249 250 251 288 
167 168 169 206 208 210 247 250 251 252 
168 169 209 211 251 252 
129 169 170 171 210 212 
172 173 211 213 214 252 253 
173 212 214 215 216 217 252 253 254 255 256 
173 174 175 212 213 215 216 217 218 253 254 255 256 
175 213 214 216 217 218 219 253 254 255 256 257 258 259 260 
175 176 213 214 215 217 218 219 220 254 255 256 257 258 259 260 
175 176 177 178 213 214 215 216 218 219 220 221 255 256 257 258 259 260 261 
175 176 177 178 179 214 215 216 217 219 220 221 256 257 258 259 260 261 
175 176 177 178 179 180 215 216 217 218 220 221 256 258 259 260 261 
177 178 179 180 216 217 218 219 221 222 259 260 261 262 263 
179 180 217 218 219 220 222 223 259 260 261 262 263 264 
180 181 220 221 223 263 
221 222 224 263 264 265 
142 143 183 184 185 186 223 225 226 227 265 266 267 
143 144 145 183 184 185 186 187 224 226 227 228 265 266 267 268 
143 144 145 184 185 186 187 224 225 227 228 229 265 266 267 268 
144 145 184 185 186 187 188 224 225 226 228 229 265 266 267 268 
146 147 185 186 187 188 189 190 225 226 227 229 230 231 265 266 267 268 269 270 271 
146 147 148 186 187 188 189 190 191 226 227 228 230 231 232 266 267 268 269 270 271 272 
147 148 149 187 188 189 190 191 192 228 229 231 232 233 268 269 270 271 272 273 
149 150 188 189 190 191 192 193 228 229 230 232 233 234 269 270 271 272 273 274 275 
150 151 189 190 191 192 193 229 230 231 233 234 269 270 271 272 273 274 275 
151 152 190 191 192 193 194 230 231 232 234 235 271 272 273 274 275 276 
152 153 191 192 193 194 231 232 233 235 236 272 273 274 275 276 277 316 
153 154 192 193 194 195 196 233 234 236 237 274 275 276 277 278 
154 155 193 194 195 196 197 234 235 237 275 276 277 278 
195 196 197 198 235 236 238 239 277 278 279 
196 197 198 199 237 239 240 241 278 279 280 281 320 
197 198 199 200 201 237 238 240 241 242 278 279 280 281 282 283 320 321 
197 198 199 200 201 202 238 239 241 242 243 279 280 281 282 283 284 321 322 323 
160 198 199 200 201 202 238 239 240 242 243 244 280 281 282 283 284 285 322 323 
160 161 198 199 200 201 202 203 239 240 241 243 244 280 281 282 283 284 285 286 323 
200 201 202 203 204 240 241 242 244 245 281 282 283 284 285 286 
201 202 203 204 241 242 243 245 246 282 283 284 285 286 287 
202 203 204 205 243 244 246 247 284 285 286 287 288 
164 203 204 205 206 208 244 245 247 249 285 286 287 288 
167 204 205 206 208 209 245 246 249 250 287 288 
166 207 289 297 298 299 300 301 302 303 305 306 310 311 312 313 314 315 330 
208 246 247 250 251 286 287 288 290 291 292 329 
208 209 247 249 251 252 288 290 291 292 
168 169 208 209 210 249 250 252 
209 210 212 213 250 251 253 
212 213 214 215 252 254 255 256 293 
213 214 215 216 253 255 256 257 258 259 293 294 295 296 
213 214 215 216 217 253 254 256 257 258 259 260 294 295 296 
213 214 215 216 217 218 219 253 254 255 257 258 259 260 295 296 
215 216 217 218 254 255 256 258 259 260 261 262 294 295 296 297 298 299 300 301 302 303 
215 216 217 218 219 254 255 256 257 259 260 261 262 295 296 297 298 299 300 301 302 303 304 
215 216 217 218 219 220 221 254 255 256 257 258 260 261 262 263 295 296 297 298 299 300 301 302 303 304 
215 216 217 218 219 220 221 255 256 257 258 259 261 262 263 264 296 297 298 299 300 301 302 303 304 305 
217 218 219 220 221 257 258 259 260 262 263 264 297 298 299 300 301 302 303 304 305 306 
220 221 257 258 259 260 261 263 264 297 298 299 300 301 302 303 304 305 306 
220 221 222 223 259 260 261 262 264 265 304 305 
221 223 260 261 262 263 265 266 268 304 305 306 307 308 309 
223 224 225 226 227 228 263 264 266 267 268 269 307 308 309 
224 225 226 227 228 229 264 265 267 268 269 270 307 308 309 
185 186 187 224 225 226 227 228 229 265 266 268 
225 226 227 228 229 230 264 265 266 267 269 270 271 307 308 309 
228 229 230 231 232 265 266 268 270 271 272 273 305 306 307 308 309 310 311 312 313 314 
228 229 230 231 232 266 268 269 271 272 273 274 306 307 308 309 310 311 312 313 314 315 
228 229 230 231 232 233 268 269 270 272 273 274 275 306 307 308 309 310 311 312 313 314 315 
191 229 230 231 232 233 234 269 270 271 273 274 275 308 309 310 311 312 313 314 315 316 
192 230 231 232 233 234 269 270 271 272 274 275 276 310 311 312 313 314 315 316 317 
192 193 231 232 233 234 235 270 271 272 273 275 276 311 312 313 314 315 316 317 318 
193 231 232 233 234 235 236 271 272 273 274 276 277 312 313 314 315 316 317 318 
194 233 234 235 236 273 274 275 277 278 315 316 317 318 319 
195 196 234 235 236 237 275 276 278 317 318 319 
196 197 235 236 237 238 239 276 277 279 280 318 319 320 321 
237 238 239 240 278 280 281 282 320 321 
198 199 238 239 240 241 242 278 279 281 282 283 284 320 321 322 323 
199 200 238 239 240 241 242 243 279 280 282 283 284 285 320 321 322 323 
200 201 239 240 241 242 243 244 279 280 281 283 284 285 320 321 322 323 326 
200 201 202 239 240 241 242 243 244 280 281 282 284 285 286 321 322 323 326 327 
201 202 240 241 242 243 244 245 280 281 282 283 285 286 287 322 323 326 327 328 
202 203 241 242 243 244 245 246 281 282 283 284 286 287 288 323 326 327 328 329 
203 204 242 243 244 245 246 249 283 284 285 287 288 290 326 327 328 329 
204 244 245 246 247 249 284 285 286 288 290 291 326 327 328 329 
208 245 246 247 249 250 285 286 287 290 291 292 327 328 329 
207 248 294 295 297 298 299 300 301 302 303 304 305 306 310 311 312 313 314 315 330 
249 250 286 287 288 291 292 293 325 326 327 328 329 
249 250 287 288 290 292 293 294 327 328 329 
249 250 288 290 291 293 294 295 328 329 
253 254 290 291 292 294 295 296 297 329 
254 255 257 289 291 292 293 295 296 297 298 299 300 301 302 303 330 
254 255 256 257 258 259 289 292 293 294 296 297 298 299 300 301 302 303 
254 255 256 257 258 259 260 293 294 295 297 298 299 300 301 302 303 
248 257 258 259 260 261 262 289 293 294 295 296 298 299 300 301 302 303 304 305 306 330 
248 257 258 259 260 261 262 289 294 295 296 297 299 300 301 302 303 304 305 306 330 
248 257 258 259 260 261 262 289 294 295 296 297 298 300 301 302 303 304 305 306 310 330 
248 257 258 259 260 261 262 289 294 295 296 297 298 299 301 302 303 304 305 306 310 311 330 
248 257 258 259 260 261 262 289 294 295 296 297 298 299 300 302 303 304 305 306 310 311 312 330 
248 257 258 259 260 261 262 289 294 295 296 297 298 299 300 301 303 304 305 306 310 311 312 313 314 330 
248 257 258 259 260 261 262 289 294 295 296 297 298 299 300 301 302 304 305 306 307 308 309 310 311 312 313 314 315 330 
258 259 260 261 262 263 264 289 297 298 299 300 301 302 303 305 306 307 308 309 310 311 312 330 
248 260 261 262 263 264 269 289 297 298 299 300 301 302 303 304 306 307 308 309 310 311 312 313 330 
248 261 262 264 269 270 271 289 297 298 299 300 301 302 303 304 305 307 308 309 310 311 312 313 314 330 
264 265 266 268 269 270 271 303 304 305 306 308 309 310 311 312 313 
264 265 266 268 269 270 271 272 303 304 305 306 307 309 310 311 312 313 
264 265 266 268 269 270 271 272 303 304 305 306 307 308 310 311 312 313 314 
248 269 270 271 272 273 289 299 300 301 302 303 304 305 306 307 308 309 311 312 313 314 315 330 
248 269 270 271 272 273 274 289 300 301 302 303 304 305 306 307 308 309 310 312 313 314 315 316 330 
248 269 270 271 272 273 274 275 289 301 302 303 304 305 306 307 308 309 310 311 313 314 315 316 317 330 
248 269 270 271 272 273 274 275 289 302 303 305 306 307 308 309 310 311 312 314 315 316 317 318 330 
248 269 270 271 272 273 274 275 289 302 303 306 309 310 311 312 313 315 316 317 318 330 
248 270 271 272 273 274 275 276 289 303 310 311 312 313 314 316 317 318 330 
234 272 273 274 275 276 311 312 313 314 315 317 318 319 
273 274 275 276 277 312 313 314 315 316 318 319 
274 275 276 277 278 313 314 315 316 317 319 
276 277 278 316 317 318 320 321 322 
238 239 278 279 280 281 282 319 321 322 323 
239 240 278 279 280 281 282 283 319 320 322 323 324 325 326 
240 241 280 281 282 283 284 319 320 321 323 324 325 326 327 
240 241 242 280 281 282 283 284 285 320 321 322 324 325 326 327 328 
321 322 323 325 326 327 328 329 
290 321 322 323 324 326 327 328 329 
282 283 284 285 286 287 290 321 322 323 324 325 327 328 329 
283 284 285 286 287 288 290 291 322 323 324 325 326 328 329 
284 285 286 287 288 290 291 292 323 324 325 326 327 329 
249 285 286 287 288 290 291 292 293 324 325 326 327 328 
248 289 294 297 298 299 300 301 302 303 304 305 306 310 311 312 313 314 315 
